Solver command line: ['C:\\gurobi1002\\win64\\bin\\gurobi.bat']

Set parameter Username
Academic license - for non-commercial use only - expires 2024-08-20
Read LP format model from file C:\Users\mhafeman\AppData\Local\Temp\tmp2n1fx47v.pyomo.lp
Reading time = 0.03 seconds
obj: 5713 rows, 5039 columns, 13595 nonzeros
Gurobi Optimizer version 10.0.2 build v10.0.2rc0 (win64)

CPU model: AMD Ryzen 7 3800X 8-Core Processor, instruction set [SSE2|AVX|AVX2]
Thread count: 8 physical cores, 16 logical processors, using up to 16 threads

Optimize a model with 5713 rows, 5039 columns and 13595 nonzeros
Model fingerprint: 0xefc4d439
Model has 167 quadratic constraints
Variable types: 3864 continuous, 1175 integer (840 binary)
Coefficient statistics:
  Matrix range     [1e-04, 3e+02]
  QMatrix range    [1e+00, 1e+00]
  Objective range  [4e+01, 4e+02]
  Bounds range     [1e+00, 3e+00]
  RHS range        [3e-03, 1e+03]
Presolve removed 4583 rows and 3741 columns
Presolve time: 0.02s
Presolved: 1130 rows, 1298 columns, 3138 nonzeros
Variable types: 711 continuous, 587 integer (587 binary)
Found heuristic solution: objective -1050703.594
Found heuristic solution: objective -1064438.338

Root relaxation: objective -1.573580e+06, 376 iterations, 0.00 seconds (0.01 work units)

    Nodes    |    Current Node    |     Objective Bounds      |     Work
 Expl Unexpl |  Obj  Depth IntInf | Incumbent    BestBd   Gap | It/Node Time

     0     0 -1573580.4    0    4 -1064438.3 -1573580.4  47.8%     -    0s
H    0     0                    -1086045.538 -1573580.4  44.9%     -    0s
H    0     0                    -1573501.520 -1573580.4  0.01%     -    0s

Cutting planes:
  Cover: 1
  Implied bound: 2
  Clique: 1
  Flow cover: 3

Explored 1 nodes (486 simplex iterations) in 0.05 seconds (0.07 work units)
Thread count was 16 (of 16 available processors)

Solution count 4: -1.5735e+06 -1.08605e+06 -1.06444e+06 -1.0507e+06 

Optimal solution found (tolerance 1.00e-04)
Best objective -1.573501519554e+06, best bound -1.573580393992e+06, gap 0.0050%

